elements = 3;
candidates = 41;
requirements = [495, 300, 500];
candidate_sets = [| 4, 18, 0
	| 0, 18, 4
	| 4, 18, 0
	| 0, 16, 9
	| 0, 18, 4
	| 4, 18, 0
	| 0, 16, 9
	| 0, 18, 4
	| 0, 20, 1
	| 0, 20, 1
	| 14, 12, 0
	| 14, 12, 0
	| 7, 15, 0
	| 0, 12, 19
	| 0, 15, 11
	| 14, 12, 0
	| 0, 12, 19
	| 16, 8, 0
	| 20, 0, 12
	| 26, 0, 8
	| 15, 0, 20
	| 33, 0, 0
	| 32, 0, 2
	| 31, 0, 3
	| 33, 0, 0
	| 33, 0, 0
	| 27, 4, 0
	| 27, 4, 0
	| 27, 4, 0
	| 29, 0, 6
	| 5, 0, 39
	| 4, 18, 0
	| 0, 0, 50
	| 1, 0, 49
	| 2, 0, 47
	| 2, 0, 47
	| 0, 0, 50
	| 1, 0, 49
	| 24, 0, 10
	| 26, 2, 2
	| 15, 7, 2
	|];
candidate_weights = [12736,
	12735,
	12737,
	12738,
	12735,
	12737,
	12738,
	12735,
	12746,
	12746,
	12743,
	12743,
	12739,
	12740,
	12738,
	12743,
	12740,
	12748,
	12747,
	12748,
	12743,
	12752,
	12751,
	12751,
	12752,
	12751,
	12751,
	12751,
	12751,
	12750,
	12745,
	12749,
	12744,
	12744,
	12744,
	12744,
	12744,
	12744,
	12749,
	12749,
	12741];
